p cnf 7230 17
5425 5577 5861 5863 -5995 0
5423 5583 5851 5853 -5993 0
-5425 -5996 0
-5423 -5994 0
-5577 -5996 0
-5583 -5994 0
-5112 -5867 -5997 0
5112 -5998 0
-5861 -5996 0
-5851 -5994 0
5997 5998 0
5995 5996 0
5993 5994 0
5867 -5998 0
-5863 -5996 0
-5853 -5994 0
5991 5992 0
